p edge 50 114
e 0 1
e 0 8
e 0 34
e 1 8
e 1 15
e 1 29
e 1 32
e 2 3
e 2 11
e 2 37
e 3 7
e 3 32
e 3 37
e 4 33
e 4 47
e 5 21
e 5 24
e 5 33
e 5 34
e 5 43
e 6 21
e 6 23
e 7 16
e 7 23
e 7 26
e 7 32
e 7 40
e 7 43
e 8 11
e 8 14
e 8 16
e 8 20
e 8 21
e 8 24
e 8 45
e 9 22
e 9 28
e 9 31
e 9 32
e 9 33
e 9 45
e 10 22
e 10 24
e 11 14
e 11 25
e 11 29
e 11 46
e 12 28
e 12 32
e 12 42
e 12 49
e 13 20
e 13 29
e 13 35
e 13 37
e 13 39
e 13 40
e 13 43
e 13 45
e 13 46
e 15 23
e 15 35
e 15 44
e 15 45
e 16 47
e 16 49
e 17 28
e 17 34
e 17 36
e 18 29
e 18 30
e 18 40
e 18 41
e 18 43
e 19 39
e 19 43
e 20 30
e 20 47
e 21 24
e 21 38
e 21 48
e 22 26
e 22 42
e 23 37
e 23 38
e 23 40
e 24 25
e 24 30
e 24 37
e 25 26
e 27 36
e 27 37
e 27 39
e 27 44
e 29 45
e 30 36
e 30 43
e 30 44
e 30 47
e 31 35
e 31 45
e 33 44
e 33 46
e 33 48
e 34 39
e 35 48
e 37 44
e 38 40
e 38 46
e 39 41
e 39 46
e 40 45
e 41 47
e 43 48
